nNurses = 191;
nHours = 40;
minHours = 8;
maxHours = 9;
maxConsec = 6;
maxPresence = 7;
demand = [17, 13, 16, 18, 20, 19, 16, 14, 17, 14, 14, 16, 12, 11, 13, 16, 11, 8, 13, 15, 11, 16, 17, 15, 17, 13, 8, 9, 12, 10, 6, 7, 7, 12, 16, 13, 9, 13, 12, 17];
